Route #1: 44 10 5 8 27 29 37
Route #2: 36 6 25 41
Route #3: 40 42 20 18 30 1
Route #4: 21 11 28 3 31 24 39 14 45 4
Route #5: 23 12 50 22 13 46 9 16
Route #6: 2 48 38 32 34 19 15 49 17 26
Route #7: 35 33 43 7 51 47
Cost 747
Time 0.074886
